179
0 154 145 99 104 125 49 127 176 43 
18 175 40 20 106 107 131 52 109 45 
178 126 90 56 96 129 66 23 89 59 
61 21 140 46 50 77 137 114 47 64 
44 36 57 22 156 15 146 37 116 162 
160 150 2 133 115 164 158 48 163 144 
69 113 17 86 74 19 70 58 93 105 
135 118 12 142 103 92 102 161 177 25 
169 172 78 34 85 124 136 139 10 62 
68 54 110 31 84 149 153 51 79 81 
123 76 122 95 147 108 100 41 119 55 
33 152 6 112 29 117 157 166 35 143 
63 91 24 88 173 11 67 165 101 87 
53 14 82 16 28 98 167 65 155 9 
128 134 121 3 111 4 83 1 60 120 
39 159 151 138 80 174 42 171 38 94 
8 130 132 32 5 75 7 73 72 30 
26 27 71 170 97 13 148 141 168 
